
Gurobi 8.1.1 (win64) logging started 11/25/19 06:57:59

Changed value of parameter LogFile to logs/full/rlt/full-06-30-1.log
   Prev: gurobi.log  Default: 
Changed value of parameter LogToConsole to 0
   Prev: 1  Min: 0  Max: 1  Default: 1
Changed value of parameter TimeLimit to 3600.0
   Prev: 1e+100  Min: 0.0  Max: 1e+100  Default: 1e+100
Optimize a model with 422160 rows, 141246 columns and 992440 nonzeros
Variable types: 0 continuous, 141246 integer (531 binary)
Coefficient statistics:
  Matrix range     [1e+00, 1e+00]
  Objective range  [1e+00, 1e+00]
  Bounds range     [1e+00, 1e+00]
  RHS range        [1e+00, 1e+00]
Presolve removed 0 rows and 0 columns (presolve time = 5s) ...
Presolve removed 0 rows and 0 columns (presolve time = 10s) ...
Presolve time: 10.09s
Presolved: 422160 rows, 141246 columns, 992440 nonzeros
Variable types: 0 continuous, 141246 integer (141246 binary)
Found heuristic solution: objective 12.0000000
Found heuristic solution: objective 9.0000000

Root simplex log...

Iteration    Objective       Primal Inf.    Dual Inf.      Time
       0    0.0000000e+00   1.500000e+01   0.000000e+00     13s
    4920    1.3837500e-05   3.000000e+01   0.000000e+00     15s
    7522    1.0000120e+00   1.750000e+01   0.000000e+00     21s
    7982    1.0000124e+00   1.363636e+01   0.000000e+00     27s
    8262    1.0000125e+00   1.367708e+01   0.000000e+00     30s
    8672    1.0000126e+00   1.475300e+02   0.000000e+00     36s
    9052    1.0000130e+00   1.750000e+01   0.000000e+00     42s
    9312    1.0000132e+00   8.240935e+02   0.000000e+00     46s
    9692    1.0000137e+00   1.665211e+03   0.000000e+00     51s
    9952    1.0000143e+00   5.623333e+02   0.000000e+00     55s
   10322    1.0000158e+00   1.700000e+01   0.000000e+00     61s
   10712    1.0000183e+00   3.493139e+03   0.000000e+00     66s
   11102    1.0309844e+00   5.609965e+02   0.000000e+00     71s
   11462    1.0635882e+00   2.976762e+01   0.000000e+00     77s
   11702    1.0715242e+00   4.606901e+02   0.000000e+00     81s
   12112    1.0816435e+00   3.966085e+02   0.000000e+00     86s
   12382    1.0875926e+00   2.917260e+02   0.000000e+00     90s
   12892    1.0974484e+00   2.490319e+03   0.000000e+00     97s
   13162    1.1037653e+00   3.481672e+02   0.000000e+00    101s
   13572    1.1124805e+00   5.672280e+01   0.000000e+00    106s
   13852    1.1174140e+00   1.193308e+02   0.000000e+00    110s
   14282    1.1226720e+00   4.773924e+02   0.000000e+00    116s
   14572    1.1260651e+00   5.028917e+02   0.000000e+00    121s
   15052    1.1335993e+00   1.203053e+01   0.000000e+00    126s
   15502    1.1363757e+00   6.537249e+02   0.000000e+00    132s
   15762    1.1398277e+00   1.214375e+02   0.000000e+00    135s
   16212    1.1415119e+00   3.089524e+02   0.000000e+00    141s
   16622    1.1432766e+00   3.039793e+02   0.000000e+00    146s
   18812    1.1455433e+00   4.256267e+03   0.000000e+00    150s
   21502    1.1466984e+00   7.437689e+01   0.000000e+00    155s
   24252    1.1474512e+00   3.161567e+00   0.000000e+00    160s
   26572    1.1479806e+00   8.463614e-01   0.000000e+00    165s
   29052    1.1484080e+00   5.152106e-01   0.000000e+00    170s
   31412    1.1487266e+00   5.641741e-02   0.000000e+00    175s
   31816    1.1487395e+00   0.000000e+00   0.000000e+00    177s

Root relaxation: objective 1.148739e+00, 31816 iterations, 163.86 seconds
Total elapsed time = 180.62s

    Nodes    |    Current Node    |     Objective Bounds      |     Work
 Expl Unexpl |  Obj  Depth IntInf | Incumbent    BestBd   Gap | It/Node Time

     0     0    1.14874    0 7673    9.00000    1.14874  87.2%     -  212s
H    0     0                       6.0000000    1.14874  80.9%     -  465s
     0     0    1.25961    0 4842    6.00000    1.25961  79.0%     -  568s
     0     0    1.36680    0 4840    6.00000    1.36680  77.2%     -  818s
     0     0    1.36803    0 4576    6.00000    1.36803  77.2%     -  909s
     0     0    1.40240    0 4103    6.00000    1.40240  76.6%     -  944s
     0     0    1.40323    0 4551    6.00000    1.40323  76.6%     - 1248s
     0     0    1.40756    0 4427    6.00000    1.40756  76.5%     - 1287s
     0     0    1.41280    0 5077    6.00000    1.41280  76.5%     - 1473s
     0     0    1.41305    0 5012    6.00000    1.41305  76.4%     - 1596s
     0     0    1.41537    0 5111    6.00000    1.41537  76.4%     - 1627s
     0     0    1.41852    0 4399    6.00000    1.41852  76.4%     - 1776s
     0     0    1.42333    0 5704    6.00000    1.42333  76.3%     - 1846s
     0     0    1.42337    0 5697    6.00000    1.42337  76.3%     - 2032s
     0     0    1.42724    0 5691    6.00000    1.42724  76.2%     - 2081s
     0     0    1.42737    0 5729    6.00000    1.42737  76.2%     - 2143s
     0     0    1.43270    0 5439    6.00000    1.43270  76.1%     - 2210s
     0     0    1.43278    0 5442    6.00000    1.43278  76.1%     - 2416s
     0     0    1.43773    0 5654    6.00000    1.43773  76.0%     - 2493s
     0     0    1.44125    0 5579    6.00000    1.44125  76.0%     - 2636s
     0     0    1.44127    0 5593    6.00000    1.44127  76.0%     - 2890s
     0     0    1.44863    0 4914    6.00000    1.44863  75.9%     - 3002s
     0     0    1.44877    0 4842    6.00000    1.44877  75.9%     - 3061s
     0     0    1.45624    0 6012    6.00000    1.45624  75.7%     - 3255s
     0     0    1.45638    0 6001    6.00000    1.45638  75.7%     - 3578s
     0     0          -    0         6.00000    1.45638  75.7%     - 3600s

Cutting planes:
  Gomory: 2
  MIR: 2
  Zero half: 108

Explored 1 nodes (184348 simplex iterations) in 3600.13 seconds
Thread count was 4 (of 4 available processors)

Solution count 3: 6 9 12 

Time limit reached
Best objective 6.000000000000e+00, best bound 2.000000000000e+00, gap 66.6667%
